Route #1: 5 46 31 49 48 22 75 3 69 76
Route #2: 7 34 64 24 57 42 65 43 44 2 74
Route #3: 13 73 40 10 33 45 4 41 18
Route #4: 30 58 16 6 38 21 71 61 72 37 70 62 23 29 63
Route #5: 39 66 67 12 60 15 54 36 8
Route #6: 47 9 20 55 14 28 53 35 68
Route #7: 52 17 50 25 51 19 56 26 32 11 59 27
cost 704